ILA_approach/gurobi/model.sol
# Objective value = 4
P_0_0_T_1_N_0_0 0
P_0_0_T_1_N_0_1 0
P_0_0_T_1_N_0_2 0
P_0_0_T_1_N_1_0 1
P_0_0_T_1_N_1_2 0
P_0_0_T_1_N_2_0 0
P_0_0_T_1_N_2_1 0
P_0_0_T_1_N_2_2 0
P_0_1_T_1_N_0_0 0
P_0_1_T_1_N_0_1 0
P_0_1_T_1_N_0_2 0
P_0_1_T_1_N_1_0 0
P_0_1_T_1_N_1_2 0
P_0_1_T_1_N_2_0 0
P_0_1_T_1_N_2_1 0
P_0_1_T_1_N_2_2 0
P_0_2_T_1_N_0_0 0
P_0_2_T_1_N_0_1 0
P_0_2_T_1_N_0_2 0
P_0_2_T_1_N_1_0 0
P_0_2_T_1_N_1_2 1
P_0_2_T_1_N_2_0 0
P_0_2_T_1_N_2_1 0
P_0_2_T_1_N_2_2 0
P_1_0_T_1_N_0_0 0
P_1_0_T_1_N_0_1 0
P_1_0_T_1_N_0_2 0
P_1_0_T_1_N_1_0 0
P_1_0_T_1_N_1_2 0
P_1_0_T_1_N_2_0 0
P_1_0_T_1_N_2_1 0
P_1_0_T_1_N_2_2 0
P_1_2_T_1_N_0_0 0
P_1_2_T_1_N_0_1 0
P_1_2_T_1_N_0_2 0
P_1_2_T_1_N_1_0 0
P_1_2_T_1_N_1_2 0
P_1_2_T_1_N_2_0 0
P_1_2_T_1_N_2_1 0
P_1_2_T_1_N_2_2 0
P_2_0_T_1_N_0_0 0
P_2_0_T_1_N_0_1 0
P_2_0_T_1_N_0_2 0
P_2_0_T_1_N_1_0 1
P_2_0_T_1_N_1_2 0
P_2_0_T_1_N_2_0 0
P_2_0_T_1_N_2_1 0
P_2_0_T_1_N_2_2 0
P_2_1_T_1_N_0_0 0
P_2_1_T_1_N_0_1 0
P_2_1_T_1_N_0_2 0
P_2_1_T_1_N_1_0 0
P_2_1_T_1_N_1_2 0
P_2_1_T_1_N_2_0 0
P_2_1_T_1_N_2_1 0
P_2_1_T_1_N_2_2 0
P_2_2_T_1_N_0_0 0
P_2_2_T_1_N_0_1 0
P_2_2_T_1_N_0_2 0
P_2_2_T_1_N_1_0 0
P_2_2_T_1_N_1_2 0
P_2_2_T_1_N_2_0 0
P_2_2_T_1_N_2_1 1
P_2_2_T_1_N_2_2 0
P_0_0_T_2_N_0_0 0
P_0_0_T_2_N_0_1 0
P_0_0_T_2_N_0_2 0
P_0_0_T_2_N_1_0 0
P_0_0_T_2_N_1_2 0
P_0_0_T_2_N_2_0 0
P_0_0_T_2_N_2_1 0
P_0_0_T_2_N_2_2 0
P_0_1_T_2_N_0_0 0
P_0_1_T_2_N_0_1 0
P_0_1_T_2_N_0_2 0
P_0_1_T_2_N_1_0 0
P_0_1_T_2_N_1_2 0
P_0_1_T_2_N_2_0 0
P_0_1_T_2_N_2_1 0
P_0_1_T_2_N_2_2 0
P_0_2_T_2_N_0_0 0
P_0_2_T_2_N_0_1 0
P_0_2_T_2_N_0_2 0
P_0_2_T_2_N_1_0 0
P_0_2_T_2_N_1_2 0
P_0_2_T_2_N_2_0 0
P_0_2_T_2_N_2_1 0
P_0_2_T_2_N_2_2 0
P_1_0_T_2_N_0_0 0
P_1_0_T_2_N_0_1 0
P_1_0_T_2_N_0_2 0
P_1_0_T_2_N_1_0 0
P_1_0_T_2_N_1_2 0
P_1_0_T_2_N_2_0 0
P_1_0_T_2_N_2_1 0
P_1_0_T_2_N_2_2 0
P_1_2_T_2_N_0_0 0
P_1_2_T_2_N_0_1 0
P_1_2_T_2_N_0_2 0
P_1_2_T_2_N_1_0 0
P_1_2_T_2_N_1_2 0
P_1_2_T_2_N_2_0 0
P_1_2_T_2_N_2_1 0
P_1_2_T_2_N_2_2 0
P_2_0_T_2_N_0_0 0
P_2_0_T_2_N_0_1 0
P_2_0_T_2_N_0_2 0
P_2_0_T_2_N_1_0 0
P_2_0_T_2_N_1_2 0
P_2_0_T_2_N_2_0 0
P_2_0_T_2_N_2_1 0
P_2_0_T_2_N_2_2 0
P_2_1_T_2_N_0_0 0
P_2_1_T_2_N_0_1 0
P_2_1_T_2_N_0_2 0
P_2_1_T_2_N_1_0 0
P_2_1_T_2_N_1_2 0
P_2_1_T_2_N_2_0 0
P_2_1_T_2_N_2_1 0
P_2_1_T_2_N_2_2 0
P_2_2_T_2_N_0_0 0
P_2_2_T_2_N_0_1 0
P_2_2_T_2_N_0_2 0
P_2_2_T_2_N_1_0 0
P_2_2_T_2_N_1_2 0
P_2_2_T_2_N_2_0 0
P_2_2_T_2_N_2_1 0
P_2_2_T_2_N_2_2 0
P_0_0_T_0_N_0_0 1
P_0_0_T_0_N_0_1 0
P_0_0_T_0_N_0_2 0
P_0_0_T_0_N_1_0 0
P_0_0_T_0_N_1_2 0
P_0_0_T_0_N_2_0 0
P_0_0_T_0_N_2_1 0
P_0_0_T_0_N_2_2 0
P_0_0_T_1_N_1_1 0
P_0_0_T_2_N_1_1 1
P_0_1_T_0_N_0_0 0
P_0_1_T_1_N_1_1 1
P_0_1_T_0_N_0_1 1
P_0_1_T_0_N_0_2 0
P_0_1_T_0_N_1_0 0
P_0_1_T_0_N_1_2 0
P_0_1_T_0_N_2_0 0
P_0_1_T_0_N_2_1 0
P_0_1_T_0_N_2_2 0
P_0_1_T_2_N_1_1 0
P_0_2_T_0_N_0_0 0
P_0_2_T_1_N_1_1 0
P_0_2_T_0_N_0_1 0
P_0_2_T_0_N_0_2 1
P_0_2_T_0_N_1_0 0
P_0_2_T_0_N_1_2 0
P_0_2_T_0_N_2_0 0
P_0_2_T_0_N_2_1 0
P_0_2_T_0_N_2_2 0
P_0_2_T_2_N_1_1 1
P_1_0_T_0_N_0_0 0
P_1_0_T_1_N_1_1 1
P_1_0_T_0_N_0_1 0
P_1_0_T_0_N_0_2 0
P_1_0_T_0_N_1_0 1
P_1_0_T_0_N_1_2 0
P_1_0_T_0_N_2_0 0
P_1_0_T_0_N_2_1 0
P_1_0_T_0_N_2_2 0
P_1_0_T_2_N_1_1 0
P_1_2_T_0_N_0_0 0
P_1_2_T_1_N_1_1 1
P_1_2_T_0_N_0_1 0
P_1_2_T_0_N_0_2 0
P_1_2_T_0_N_1_0 0
P_1_2_T_0_N_1_2 1
P_1_2_T_0_N_2_0 0
P_1_2_T_0_N_2_1 0
P_1_2_T_0_N_2_2 0
P_1_2_T_2_N_1_1 0
P_2_0_T_0_N_0_0 0
P_2_0_T_1_N_1_1 0
P_2_0_T_0_N_0_1 0
P_2_0_T_0_N_0_2 0
P_2_0_T_0_N_1_0 0
P_2_0_T_0_N_1_2 0
P_2_0_T_0_N_2_0 1
P_2_0_T_0_N_2_1 0
P_2_0_T_0_N_2_2 0
P_2_0_T_2_N_1_1 1
P_2_1_T_0_N_0_0 0
P_2_1_T_1_N_1_1 1
P_2_1_T_0_N_0_1 0
P_2_1_T_0_N_0_2 0
P_2_1_T_0_N_1_0 0
P_2_1_T_0_N_1_2 0
P_2_1_T_0_N_2_0 0
P_2_1_T_0_N_2_1 1
P_2_1_T_0_N_2_2 0
P_2_1_T_2_N_1_1 0
P_2_2_T_0_N_0_0 0
P_2_2_T_1_N_1_1 0
P_2_2_T_0_N_0_1 0
P_2_2_T_0_N_0_2 0
P_2_2_T_0_N_1_0 0
P_2_2_T_0_N_1_2 0
P_2_2_T_0_N_2_0 0
P_2_2_T_0_N_2_1 0
P_2_2_T_0_N_2_2 1
P_2_2_T_2_N_1_1 1
